; 
(set-info :status unknown)
(declare-sort Heap 0)
 (declare-fun accessible (Heap Int Int) Bool)
(declare-fun free (Heap Int) Heap)
(declare-fun disjoint (Int Int Int Int) Bool)
(declare-fun mallocsize (Heap Int) Int)
(declare-fun freeable (Heap Int) Bool)
(declare-fun malloc (Heap Int Int) Heap)
(declare-fun contained (Int Int Int Int) Bool)
(declare-fun mallocable (Heap Int Int) Bool)
(declare-fun epsilon () Heap)
(declare-fun heaptop (Heap) Int)
(declare-fun mallocable_top (Heap Int Int) Bool)
(declare-fun mallocable_size (Heap Int Int) Bool)
(declare-fun read (Heap Int) Int)
(declare-fun write (Heap Int Int) Heap)
(declare-fun invalidFree_5 () Bool)
(declare-fun loc_5 () Int)
(declare-fun invalidFree_4 () Bool)
(declare-fun $i2_main0_4 () Int)
(declare-fun $i2_main0_5 () Int)
(declare-fun $i1_free_g20_4 () Int)
(declare-fun $i1_free_g20_5 () Int)
(declare-fun $i0_h0_4 () Int)
(declare-fun $i0_h0_5 () Int)
(declare-fun $p9_main0_4 () Int)
(declare-fun $p9_main0_5 () Int)
(declare-fun $p8_main0_4 () Int)
(declare-fun $p8_main0_5 () Int)
(declare-fun $p7_main0_4 () Int)
(declare-fun $p7_main0_5 () Int)
(declare-fun $p6_main0_4 () Int)
(declare-fun $p6_main0_5 () Int)
(declare-fun $p5_main0_4 () Int)
(declare-fun $p5_main0_5 () Int)
(declare-fun $p4_main0_4 () Int)
(declare-fun $p4_main0_5 () Int)
(declare-fun $p4_free_g20_4 () Int)
(declare-fun $p4_free_g20_5 () Int)
(declare-fun $p3_main0_4 () Int)
(declare-fun $p3_main0_5 () Int)
(declare-fun $p3_free_g20_4 () Int)
(declare-fun $p3_free_g20_5 () Int)
(declare-fun $p2_free_g20_4 () Int)
(declare-fun $p2_free_g20_5 () Int)
(declare-fun $p1_main0_4 () Int)
(declare-fun $p1_main0_5 () Int)
(declare-fun $p1_free_g10_4 () Int)
(declare-fun $p1_free_g10_5 () Int)
(declare-fun $p10_main0_4 () Int)
(declare-fun $p10_main0_5 () Int)
(declare-fun $p0_main0_4 () Int)
(declare-fun $p0_main0_5 () Int)
(declare-fun $p0_free_g20_4 () Int)
(declare-fun $p0_free_g20_5 () Int)
(declare-fun $p0_free_g10_4 () Int)
(declare-fun $p0_free_g10_5 () Int)
(declare-fun $M.0_4 () Int)
(declare-fun $M.0_5 () Int)
(declare-fun $r_main01_5 () Int)
(declare-fun $r_main0_5 () Int)
(declare-fun loc_4 () Int)
(declare-fun $r_main0_4 () Int)
(declare-fun invalidFree_3 () Bool)
(declare-fun $r_main0_3 () Int)
(declare-fun $i2_main0_3 () Int)
(declare-fun $i1_free_g20_3 () Int)
(declare-fun $i0_h0_3 () Int)
(declare-fun $p9_main0_3 () Int)
(declare-fun $p8_main0_3 () Int)
(declare-fun $p7_main0_3 () Int)
(declare-fun $p6_main0_3 () Int)
(declare-fun $p5_main0_3 () Int)
(declare-fun $p4_main0_3 () Int)
(declare-fun $p4_free_g20_3 () Int)
(declare-fun $p3_main0_3 () Int)
(declare-fun $p3_free_g20_3 () Int)
(declare-fun $p2_free_g20_3 () Int)
(declare-fun $p1_main0_3 () Int)
(declare-fun $p1_free_g10_3 () Int)
(declare-fun $p10_main0_3 () Int)
(declare-fun $p0_main0_3 () Int)
(declare-fun $p0_free_g20_3 () Int)
(declare-fun $p0_free_g10_3 () Int)
(declare-fun $M.0_3 () Int)
(declare-fun loc_3 () Int)
(declare-fun invalidFree4_4 () Bool)
(declare-fun A7_4 () Heap)
(declare-fun A_4 () Heap)
(declare-fun $p4_free_g201_4 () Int)
(declare-fun $p3_free_g201_4 () Int)
(declare-fun $p2_free_g201_4 () Int)
(declare-fun A_3 () Heap)
(declare-fun $r_main0_2 () Int)
(declare-fun $i2_main0_2 () Int)
(declare-fun $i0_h0_2 () Int)
(declare-fun $p5_main0_2 () Int)
(declare-fun $p4_main0_2 () Int)
(declare-fun $p4_free_g20_2 () Int)
(declare-fun $p3_main0_2 () Int)
(declare-fun $p3_free_g20_2 () Int)
(declare-fun $p2_free_g20_2 () Int)
(declare-fun $p1_main0_2 () Int)
(declare-fun $p0_main0_2 () Int)
(declare-fun invalidFree3_3 () Bool)
(declare-fun A6_3 () Heap)
(declare-fun $p9_main01_3 () Int)
(declare-fun $p8_main01_3 () Int)
(declare-fun $p7_main01_3 () Int)
(declare-fun $p6_main01_3 () Int)
(declare-fun $p1_free_g101_3 () Int)
(declare-fun $p10_main01_3 () Int)
(declare-fun $p0_free_g201_3 () Int)
(declare-fun $p0_free_g101_3 () Int)
(declare-fun $i1_free_g201_3 () Int)
(declare-fun $M.03_3 () Int)
(declare-fun invalidFree2_3 () Bool)
(declare-fun A5_3 () Heap)
(declare-fun $M.0_2 () Int)
(declare-fun invalidFree1_3 () Bool)
(declare-fun A4_3 () Heap)
(declare-fun invalidFree_2 () Bool)
(declare-fun A_2 () Heap)
(declare-fun loc_2 () Int)
(declare-fun $i1_free_g20_2 () Int)
(declare-fun $p9_main0_2 () Int)
(declare-fun $p8_main0_2 () Int)
(declare-fun $p7_main0_2 () Int)
(declare-fun $p6_main0_2 () Int)
(declare-fun $p1_free_g10_2 () Int)
(declare-fun $p10_main0_2 () Int)
(declare-fun $p0_free_g20_2 () Int)
(declare-fun $p0_free_g10_2 () Int)
(declare-fun invalidFree_1 () Bool)
(declare-fun $r_main0_1 () Int)
(declare-fun $i2_main0_1 () Int)
(declare-fun $i1_free_g20_1 () Int)
(declare-fun $i0_h0_1 () Int)
(declare-fun $p9_main0_1 () Int)
(declare-fun $p8_main0_1 () Int)
(declare-fun $p7_main0_1 () Int)
(declare-fun $p6_main0_1 () Int)
(declare-fun $p4_free_g20_1 () Int)
(declare-fun $p3_free_g20_1 () Int)
(declare-fun $p2_free_g20_1 () Int)
(declare-fun $p1_main0_1 () Int)
(declare-fun $p1_free_g10_1 () Int)
(declare-fun $p10_main0_1 () Int)
(declare-fun $p0_main0_1 () Int)
(declare-fun $p0_free_g20_1 () Int)
(declare-fun $p0_free_g10_1 () Int)
(declare-fun $M.0_1 () Int)
(declare-fun A3_2 () Heap)
(declare-fun $p5_main01_2 () Int)
(declare-fun $p4_main01_2 () Int)
(declare-fun $p3_main01_2 () Int)
(declare-fun A2_2 () Heap)
(declare-fun A_1 () Heap)
(declare-fun loc_1 () Int)
(declare-fun $p5_main0_1 () Int)
(declare-fun $p4_main0_1 () Int)
(declare-fun $p3_main0_1 () Int)
(declare-fun invalidFree_0 () Bool)
(declare-fun $r_main0_0 () Int)
(declare-fun $i2_main0_0 () Int)
(declare-fun $i1_free_g20_0 () Int)
(declare-fun $i0_h0_0 () Int)
(declare-fun $p9_main0_0 () Int)
(declare-fun $p8_main0_0 () Int)
(declare-fun $p7_main0_0 () Int)
(declare-fun $p6_main0_0 () Int)
(declare-fun $p5_main0_0 () Int)
(declare-fun $p4_main0_0 () Int)
(declare-fun $p4_free_g20_0 () Int)
(declare-fun $p3_main0_0 () Int)
(declare-fun $p3_free_g20_0 () Int)
(declare-fun $p2_free_g20_0 () Int)
(declare-fun $p1_free_g10_0 () Int)
(declare-fun $p10_main0_0 () Int)
(declare-fun $p0_free_g20_0 () Int)
(declare-fun $p0_free_g10_0 () Int)
(declare-fun A1_1 () Heap)
(declare-fun $p1_main01_1 () Int)
(declare-fun $p0_main01_1 () Int)
(declare-fun $M.02_1 () Int)
(declare-fun A_0 () Heap)
(declare-fun $M.01_1 () Int)
(declare-fun loc_0 () Int)
(assert
 (forall ((h Heap) (p Int) (s Int) (q Int) (t Int) )(let (($x151 (freeable h p)))
 (let (($x152 (and $x151 (not (disjoint p (mallocsize h p) q t)))))
 (let (($x154 (accessible h q t)))
 (let (($x146 (accessible (free h p) q t)))
 (let (($x155 (= $x146 $x154)))
 (let (($x149 (disjoint p (mallocsize h p) q t)))
 (let (($x156 (and $x151 $x149)))
 (let (($x161 (accessible (malloc h p s) q t)))
 (let (($x162 (= $x161 $x154)))
 (let (($x46 (contained p s q t)))
 (let (($x164 (and (mallocable h p s) $x46)))
 (let (($x165 (not $x164)))
 (let (($x171 (and (= (accessible epsilon p s) false) (=> $x164 (= $x161 true)))))
 (let (($x174 (and (and (and $x171 (=> $x165 $x162)) (=> (not $x151) $x155)) (=> $x156 $x155))))
 (and $x174 (=> $x152 (= $x146 false))))))))))))))))))
 )
(assert
 (forall ((h Heap) (p Int) (s Int) (q Int) )(let (($x92 (freeable h q)))
 (let ((?x93 (free h p)))
 (let (($x94 (freeable ?x93 q)))
 (let (($x95 (= $x94 $x92)))
 (let (($x30 (and (distinct p q) true)))
 (let ((?x99 (malloc h p s)))
 (let (($x100 (freeable ?x99 q)))
 (let (($x101 (= $x100 $x92)))
 (let (($x33 (= p q)))
 (let (($x103 (and (mallocable h p s) $x33)))
 (let (($x104 (not $x103)))
 (let (($x111 (and (and (= (freeable epsilon q) false) (=> $x103 (= $x100 true))) (=> $x104 $x101))))
 (and (and $x111 (=> $x33 (= $x94 false))) (=> $x30 $x95)))))))))))))))
 )
(assert
 (forall ((h Heap) (p Int) (s Int) )(let ((?x63 (heaptop h)))
 (let (($x66 (= (heaptop (free h p)) ?x63)))
 (let (($x14 (= (heaptop epsilon) 0)))
 (and (and $x14 $x66) (= (heaptop (malloc h p s)) (+ p s)))))))
 )
(assert
 (forall ((h Heap) (p Int) (s Int) )(= (mallocable h p s) (and (mallocable_size h p s) (mallocable_top h p s))))
 )
(assert
 (forall ((h Heap) (p Int) (s Int) (q Int) )(let ((?x117 (mallocsize h q)))
 (let ((?x99 (malloc h p s)))
 (let ((?x118 (mallocsize ?x99 q)))
 (let (($x119 (= ?x118 ?x117)))
 (let (($x33 (= p q)))
 (let (($x103 (and (mallocable h p s) $x33)))
 (let (($x104 (not $x103)))
 (let ((?x93 (free h p)))
 (let ((?x123 (mallocsize ?x93 q)))
 (let (($x124 (= ?x123 ?x117)))
 (let (($x126 (and (freeable h p) $x33)))
 (let (($x127 (not $x126)))
 (let (($x134 (and (and (= (mallocsize epsilon q) 0) (=> $x126 (= ?x123 0))) (=> $x127 $x124))))
 (and (and $x134 (=> $x103 (= ?x118 s))) (=> $x104 $x119))))))))))))))))
 )
(assert
 (forall ((h Heap) (p Int) (x Int) (q Int) )(let ((?x28 (read (write h p x) q)))
 (let (($x29 (= ?x28 (read h q))))
 (let (($x30 (and (distinct p q) true)))
 (and (=> (= p q) (= ?x28 x)) (=> $x30 $x29))))))
 )
(assert
 (forall ((p Int) (s Int) (q Int) (t Int) )(let (($x46 (contained p s q t)))
 (= $x46 (and (<= p q) (<= (+ q t) (+ p s))))))
 )
(assert
 (forall ((p Int) (s Int) (q Int) (t Int) )(let (($x40 (disjoint p s q t)))
 (= $x40 (or (<= (+ p s) q) (<= (+ q t) p)))))
 )
(assert
 (forall ((h Heap) (p Int) (s Int) )(let (($x18 (mallocable_size h p s)))
 (= $x18 (and (distinct s 0) true))))
 )
(assert
 (forall ((h Heap) (p Int) (s Int) )(let (($x55 (mallocable_top h p s)))
 (= $x55 (>= p (heaptop h)))))
 )
(assert
 (let (($x1092 (= loc_5 8)))
 (let (($x1254 (= invalidFree_5 invalidFree_4)))
 (let (($x1065 (= $i2_main0_5 $i2_main0_4)))
 (let (($x1062 (= $i1_free_g20_5 $i1_free_g20_4)))
 (let (($x1066 (and (and (and true (= $i0_h0_5 $i0_h0_4)) $x1062) $x1065)))
 (let (($x1055 (= $p9_main0_5 $p9_main0_4)))
 (let (($x1052 (= $p8_main0_5 $p8_main0_4)))
 (let (($x1049 (= $p7_main0_5 $p7_main0_4)))
 (let (($x1046 (= $p6_main0_5 $p6_main0_4)))
 (let (($x1043 (= $p5_main0_5 $p5_main0_4)))
 (let (($x1040 (= $p4_main0_5 $p4_main0_4)))
 (let (($x1037 (= $p4_free_g20_5 $p4_free_g20_4)))
 (let (($x1034 (= $p3_main0_5 $p3_main0_4)))
 (let (($x1031 (= $p3_free_g20_5 $p3_free_g20_4)))
 (let (($x1028 (= $p2_free_g20_5 $p2_free_g20_4)))
 (let (($x1025 (= $p1_main0_5 $p1_main0_4)))
 (let (($x1022 (= $p1_free_g10_5 $p1_free_g10_4)))
 (let (($x1019 (= $p10_main0_5 $p10_main0_4)))
 (let (($x1016 (= $p0_main0_5 $p0_main0_4)))
 (let (($x1013 (= $p0_free_g20_5 $p0_free_g20_4)))
 (let (($x1010 (= $p0_free_g10_5 $p0_free_g10_4)))
 (let (($x1020 (and (and (and (and (and true (= $M.0_5 $M.0_4)) $x1010) $x1013) $x1016) $x1019)))
 (let (($x1038 (and (and (and (and (and (and $x1020 $x1022) $x1025) $x1028) $x1031) $x1034) $x1037)))
 (let (($x1056 (and (and (and (and (and (and $x1038 $x1040) $x1043) $x1046) $x1049) $x1052) $x1055)))
 (let (($x1085 (= $r_main0_5 $r_main01_5)))
 (let (($x1086 (and $x1085 true)))
 (let (($x1083 (= $r_main01_5 0)))
 (let (($x1261 (or $x1083 invalidFree_4)))
 (let (($x995 (= loc_4 7)))
 (let (($x1267 (=> $x995 (and (and (and (and (and $x1261 $x1086) $x1056) $x1066) $x1254) $x1092))))
 (let (($x1078 (= loc_5 5)))
 (let (($x1068 (= $r_main0_5 $r_main0_4)))
 (let (($x1069 (and $x1066 $x1068)))
 (let (($x1255 (and (and (and (and invalidFree_4 (and true true)) $x1056) $x1069) $x1254)))
 (let (($x940 (= loc_4 5)))
 (let (($x1260 (and (=> (= loc_4 3) (and $x1255 (= loc_5 3))) (=> $x940 (and $x1255 $x1078)))))
 (let (($x1217 (= invalidFree_4 invalidFree_3)))
 (let (($x930 (= $r_main0_4 $r_main0_3)))
 (let (($x927 (= $i2_main0_4 $i2_main0_3)))
 (let (($x924 (= $i1_free_g20_4 $i1_free_g20_3)))
 (let (($x931 (and (and (and (and true (= $i0_h0_4 $i0_h0_3)) $x924) $x927) $x930)))
 (let (($x917 (= $p9_main0_4 $p9_main0_3)))
 (let (($x914 (= $p8_main0_4 $p8_main0_3)))
 (let (($x911 (= $p7_main0_4 $p7_main0_3)))
 (let (($x908 (= $p6_main0_4 $p6_main0_3)))
 (let (($x905 (= $p5_main0_4 $p5_main0_3)))
 (let (($x902 (= $p4_main0_4 $p4_main0_3)))
 (let (($x899 (= $p4_free_g20_4 $p4_free_g20_3)))
 (let (($x896 (= $p3_main0_4 $p3_main0_3)))
 (let (($x893 (= $p3_free_g20_4 $p3_free_g20_3)))
 (let (($x890 (= $p2_free_g20_4 $p2_free_g20_3)))
 (let (($x887 (= $p1_main0_4 $p1_main0_3)))
 (let (($x884 (= $p1_free_g10_4 $p1_free_g10_3)))
 (let (($x881 (= $p10_main0_4 $p10_main0_3)))
 (let (($x878 (= $p0_main0_4 $p0_main0_3)))
 (let (($x875 (= $p0_free_g20_4 $p0_free_g20_3)))
 (let (($x872 (= $p0_free_g10_4 $p0_free_g10_3)))
 (let (($x882 (and (and (and (and (and true (= $M.0_4 $M.0_3)) $x872) $x875) $x878) $x881)))
 (let (($x888 (and (and $x882 $x884) $x887)))
 (let (($x906 (and (and (and (and (and (and $x888 $x890) $x893) $x896) $x899) $x902) $x905)))
 (let (($x918 (and (and (and (and $x906 $x908) $x911) $x914) $x917)))
 (let (($x1218 (and (and (and (and invalidFree_3 (and true true)) $x918) $x931) $x1217)))
 (let (($x862 (= loc_3 6)))
 (let (($x1000 (and $x862 (not (= $i1_free_g20_3 1)))))
 (let (($x990 (and (and (and (and (and (and $x888 $x896) $x902) $x905) $x908) $x911) $x914)))
 (let (($x991 (and $x990 $x917)))
 (let (($x1238 (= invalidFree_4 invalidFree4_4)))
 (let (($x980 (= A_4 A7_4)))
 (let (($x977 (= $p4_free_g20_4 $p4_free_g201_4)))
 (let (($x975 (= $p3_free_g20_4 $p3_free_g201_4)))
 (let (($x974 (= $p2_free_g20_4 $p2_free_g201_4)))
 (let (($x981 (and (and (and $x974 $x975) $x977) $x980)))
 (let (($x1225 (= invalidFree4_4 invalidFree_3)))
 (let (($x1226 (and invalidFree_3 $x1225)))
 (let (($x952 (= A7_4 (free A_3 $p4_free_g201_4))))
 (let (($x953 (freeable A_3 $p4_free_g201_4)))
 (let (($x954 (and $x953 $x952)))
 (let (($x1228 (not $x953)))
 (let (($x1229 (and $x1228 invalidFree4_4)))
 (let (($x956 (= $p4_free_g201_4 $p3_free_g201_4)))
 (let (($x1232 (or $x956 invalidFree_3)))
 (let (($x961 (= $p3_free_g201_4 (read A_3 $p2_free_g201_4))))
 (let (($x1233 (or $x961 invalidFree_3)))
 (let (($x969 (= $p2_free_g201_4 $M.0_3)))
 (let (($x1234 (or $x969 invalidFree_3)))
 (let (($x1237 (and (and (and $x1234 $x1233) $x1232) (or (or $x1229 (and $x954 $x1225)) $x1226))))
 (let (($x949 (= $i1_free_g20_3 1)))
 (let (($x950 (and $x862 $x949)))
 (let (($x1244 (=> $x950 (and (and (and (and $x1237 (and $x981 $x1238)) $x991) $x931) $x995))))
 (let (($x1223 (and (=> (= loc_3 3) (and $x1218 (= loc_4 3))) (=> (= loc_3 5) (and $x1218 $x940)))))
 (let (($x724 (= $r_main0_3 $r_main0_2)))
 (let (($x721 (= $i2_main0_3 $i2_main0_2)))
 (let (($x715 (= $i0_h0_3 $i0_h0_2)))
 (let (($x716 (and true $x715)))
 (let (($x859 (and (and $x716 $x721) $x724)))
 (let (($x699 (= $p5_main0_3 $p5_main0_2)))
 (let (($x696 (= $p4_main0_3 $p4_main0_2)))
 (let (($x693 (= $p4_free_g20_3 $p4_free_g20_2)))
 (let (($x690 (= $p3_main0_3 $p3_main0_2)))
 (let (($x687 (= $p3_free_g20_3 $p3_free_g20_2)))
 (let (($x684 (= $p2_free_g20_3 $p2_free_g20_2)))
 (let (($x681 (= $p1_main0_3 $p1_main0_2)))
 (let (($x852 (and (and (and (and true (= $p0_main0_3 $p0_main0_2)) $x681) $x684) $x687)))
 (let (($x856 (and (and (and (and $x852 $x690) $x693) $x696) $x699)))
 (let (($x1204 (= invalidFree_3 invalidFree3_3)))
 (let (($x844 (= A_3 A6_3)))
 (let (($x841 (= $p9_main0_3 $p9_main01_3)))
 (let (($x839 (= $p8_main0_3 $p8_main01_3)))
 (let (($x837 (= $p7_main0_3 $p7_main01_3)))
 (let (($x835 (= $p6_main0_3 $p6_main01_3)))
 (let (($x833 (= $p1_free_g10_3 $p1_free_g101_3)))
 (let (($x831 (= $p10_main0_3 $p10_main01_3)))
 (let (($x829 (= $p0_free_g20_3 $p0_free_g201_3)))
 (let (($x827 (= $p0_free_g10_3 $p0_free_g101_3)))
 (let (($x828 (and (and (= $M.0_3 $M.03_3) (= $i1_free_g20_3 $i1_free_g201_3)) $x827)))
 (let (($x840 (and (and (and (and (and (and $x828 $x829) $x831) $x833) $x835) $x837) $x839)))
 (let (($x845 (and (and $x840 $x841) $x844)))
 (let (($x762 (= $i1_free_g201_3 0)))
 (let (($x768 (or (and (and (distinct $p0_free_g201_3 0) true) (= $i1_free_g201_3 1)) (and (not (and (distinct $p0_free_g201_3 0) true)) $x762))))
 (let (($x770 (= $p0_free_g201_3 $M.03_3)))
 (let (($x1162 (or $x770 invalidFree3_3)))
 (let (($x772 (= $M.03_3 0)))
 (let (($x1163 (or $x772 invalidFree3_3)))
 (let (($x1164 (= invalidFree3_3 invalidFree2_3)))
 (let (($x1165 (and invalidFree2_3 $x1164)))
 (let (($x775 (= A6_3 (free A5_3 $p1_free_g101_3))))
 (let (($x776 (freeable A5_3 $p1_free_g101_3)))
 (let (($x777 (and $x776 $x775)))
 (let (($x1168 (and (not $x776) invalidFree3_3)))
 (let (($x779 (= $p1_free_g101_3 $p0_free_g101_3)))
 (let (($x1171 (or $x779 invalidFree2_3)))
 (let (($x781 (= $p0_free_g101_3 $M.0_2)))
 (let (($x1172 (or $x781 invalidFree2_3)))
 (let (($x1173 (= invalidFree2_3 invalidFree1_3)))
 (let (($x1174 (and invalidFree1_3 $x1173)))
 (let (($x784 (= A5_3 (free A4_3 $p10_main01_3))))
 (let (($x785 (freeable A4_3 $p10_main01_3)))
 (let (($x786 (and $x785 $x784)))
 (let (($x1177 (and (not $x785) invalidFree2_3)))
 (let (($x788 (= $p10_main01_3 $p9_main01_3)))
 (let (($x1180 (or $x788 invalidFree1_3)))
 (let (($x790 (= $p9_main01_3 $M.0_2)))
 (let (($x1181 (or $x790 invalidFree1_3)))
 (let (($x1182 (= invalidFree1_3 invalidFree_2)))
 (let (($x1183 (and invalidFree_2 $x1182)))
 (let (($x793 (= A4_3 (free A_2 $p8_main01_3))))
 (let (($x794 (freeable A_2 $p8_main01_3)))
 (let (($x795 (and $x794 $x793)))
 (let (($x1186 (and (not $x794) invalidFree1_3)))
 (let (($x797 (= $p8_main01_3 $p7_main01_3)))
 (let (($x1189 (or $x797 invalidFree_2)))
 (let (($x802 (= $p7_main01_3 (read A_2 $p6_main01_3))))
 (let (($x1190 (or $x802 invalidFree_2)))
 (let (($x810 (= $p6_main01_3 $M.0_2)))
 (let (($x1191 (or $x810 invalidFree_2)))
 (let (($x1194 (and (and (and $x1191 $x1190) $x1189) (or (or $x1186 (and $x795 $x1182)) $x1183))))
 (let (($x1197 (and (and (and $x1194 $x1181) $x1180) (or (or $x1177 (and $x786 $x1173)) $x1174))))
 (let (($x1200 (and (and (and $x1197 $x1172) $x1171) (or (or $x1168 (and $x777 $x1164)) $x1165))))
 (let (($x1206 (and (and (and (and $x1200 $x1163) $x1162) (or $x768 invalidFree3_3)) (and $x845 $x1204))))
 (let (($x656 (= loc_2 4)))
 (let (($x761 (and $x656 (not (= $i0_h0_2 1)))))
 (let (($x742 (= loc_3 5)))
 (let (($x1146 (= invalidFree_3 invalidFree_2)))
 (let (($x725 (and (and (and $x716 (= $i1_free_g20_3 $i1_free_g20_2)) $x721) $x724)))
 (let (($x711 (= $p9_main0_3 $p9_main0_2)))
 (let (($x708 (= $p8_main0_3 $p8_main0_2)))
 (let (($x705 (= $p7_main0_3 $p7_main0_2)))
 (let (($x702 (= $p6_main0_3 $p6_main0_2)))
 (let (($x678 (= $p1_free_g10_3 $p1_free_g10_2)))
 (let (($x675 (= $p10_main0_3 $p10_main0_2)))
 (let (($x672 (= $p0_main0_3 $p0_main0_2)))
 (let (($x669 (= $p0_free_g20_3 $p0_free_g20_2)))
 (let (($x666 (= $p0_free_g10_3 $p0_free_g10_2)))
 (let (($x676 (and (and (and (and (and true (= $M.0_3 $M.0_2)) $x666) $x669) $x672) $x675)))
 (let (($x694 (and (and (and (and (and (and $x676 $x678) $x681) $x684) $x687) $x690) $x693)))
 (let (($x712 (and (and (and (and (and (and $x694 $x696) $x699) $x702) $x705) $x708) $x711)))
 (let (($x1153 (and (and (and (or false invalidFree_2) (and true true)) $x712) $x725)))
 (let (($x734 (= $i0_h0_2 1)))
 (let (($x735 (and $x656 $x734)))
 (let (($x731 (= loc_3 3)))
 (let (($x1147 (and (and (and (and invalidFree_2 (and true true)) $x712) $x725) $x1146)))
 (let (($x603 (= loc_2 3)))
 (let (($x1157 (and (=> $x603 (and $x1147 $x731)) (=> $x735 (and (and $x1153 $x1146) $x742)))))
 (let (($x1122 (= invalidFree_2 invalidFree_1)))
 (let (($x595 (= $r_main0_2 $r_main0_1)))
 (let (($x592 (= $i2_main0_2 $i2_main0_1)))
 (let (($x589 (= $i1_free_g20_2 $i1_free_g20_1)))
 (let (($x596 (and (and (and (and true (= $i0_h0_2 $i0_h0_1)) $x589) $x592) $x595)))
 (let (($x582 (= $p9_main0_2 $p9_main0_1)))
 (let (($x579 (= $p8_main0_2 $p8_main0_1)))
 (let (($x576 (= $p7_main0_2 $p7_main0_1)))
 (let (($x573 (= $p6_main0_2 $p6_main0_1)))
 (let (($x564 (= $p4_free_g20_2 $p4_free_g20_1)))
 (let (($x558 (= $p3_free_g20_2 $p3_free_g20_1)))
 (let (($x555 (= $p2_free_g20_2 $p2_free_g20_1)))
 (let (($x552 (= $p1_main0_2 $p1_main0_1)))
 (let (($x549 (= $p1_free_g10_2 $p1_free_g10_1)))
 (let (($x546 (= $p10_main0_2 $p10_main0_1)))
 (let (($x543 (= $p0_main0_2 $p0_main0_1)))
 (let (($x540 (= $p0_free_g20_2 $p0_free_g20_1)))
 (let (($x537 (= $p0_free_g10_2 $p0_free_g10_1)))
 (let (($x547 (and (and (and (and (and true (= $M.0_2 $M.0_1)) $x537) $x540) $x543) $x546)))
 (let (($x559 (and (and (and (and $x547 $x549) $x552) $x555) $x558)))
 (let (($x652 (and (and (and (and (and $x559 $x564) $x573) $x576) $x579) $x582)))
 (let (($x643 (= A_2 A3_2)))
 (let (($x640 (= $p5_main0_2 $p5_main01_2)))
 (let (($x641 (and (and (= $p3_main0_2 $p3_main01_2) (= $p4_main0_2 $p4_main01_2)) $x640)))
 (let (($x644 (and $x641 $x643)))
 (let (($x1133 (and $x644 true)))
 (let (($x617 (= A3_2 (write A2_2 $p5_main01_2 $p3_main01_2))))
 (let (($x1126 (or $x617 invalidFree_1)))
 (let (($x625 (= $p5_main01_2 $M.0_1)))
 (let (($x1127 (or $x625 invalidFree_1)))
 (let (($x627 (= $p4_main01_2 $p3_main01_2)))
 (let (($x1128 (or $x627 invalidFree_1)))
 (let (($x632 (and (mallocable_top A_1 $p3_main01_2 1) (= A2_2 (malloc A_1 $p3_main01_2 1)))))
 (let (($x1129 (or $x632 invalidFree_1)))
 (let (($x1136 (and (and (and (and (and (and $x1129 $x1128) $x1127) $x1126) $x1133) $x652) $x596)))
 (let (($x524 (= loc_1 2)))
 (let (($x613 (and $x524 (not (= $i2_main0_1 1)))))
 (let (($x570 (= $p5_main0_2 $p5_main0_1)))
 (let (($x567 (= $p4_main0_2 $p4_main0_1)))
 (let (($x571 (and (and (and (and $x559 (= $p3_main0_2 $p3_main0_1)) $x564) $x567) $x570)))
 (let (($x583 (and (and (and (and $x571 $x573) $x576) $x579) $x582)))
 (let (($x1120 (and (and (and (or false invalidFree_1) (and true true)) $x583) $x596)))
 (let (($x528 (= $i2_main0_1 1)))
 (let (($x529 (and $x524 $x528)))
 (let (($x1140 (and (=> $x529 (and (and $x1120 $x1122) $x603)) (=> $x613 (and (and $x1136 $x1122) $x656)))))
 (let (($x1112 (= invalidFree_1 invalidFree_0)))
 (let (($x516 (= $r_main0_1 $r_main0_0)))
 (let (($x512 (= $i2_main0_1 $i2_main0_0)))
 (let (($x508 (= $i1_free_g20_1 $i1_free_g20_0)))
 (let (($x517 (and (and (and (and true (= $i0_h0_1 $i0_h0_0)) $x508) $x512) $x516)))
 (let (($x499 (= $p9_main0_1 $p9_main0_0)))
 (let (($x495 (= $p8_main0_1 $p8_main0_0)))
 (let (($x491 (= $p7_main0_1 $p7_main0_0)))
 (let (($x487 (= $p6_main0_1 $p6_main0_0)))
 (let (($x483 (= $p5_main0_1 $p5_main0_0)))
 (let (($x479 (= $p4_main0_1 $p4_main0_0)))
 (let (($x475 (= $p4_free_g20_1 $p4_free_g20_0)))
 (let (($x471 (= $p3_main0_1 $p3_main0_0)))
 (let (($x467 (= $p3_free_g20_1 $p3_free_g20_0)))
 (let (($x463 (= $p2_free_g20_1 $p2_free_g20_0)))
 (let (($x459 (= $p1_free_g10_1 $p1_free_g10_0)))
 (let (($x455 (= $p10_main0_1 $p10_main0_0)))
 (let (($x451 (= $p0_free_g20_1 $p0_free_g20_0)))
 (let (($x456 (and (and (and true (= $p0_free_g10_1 $p0_free_g10_0)) $x451) $x455)))
 (let (($x480 (and (and (and (and (and (and $x456 $x459) $x463) $x467) $x471) $x475) $x479)))
 (let (($x500 (and (and (and (and (and $x480 $x483) $x487) $x491) $x495) $x499)))
 (let (($x441 (= A_1 A1_1)))
 (let (($x438 (= $p1_main0_1 $p1_main01_1)))
 (let (($x439 (and (and (= $M.0_1 $M.02_1) (= $p0_main0_1 $p0_main01_1)) $x438)))
 (let (($x443 (and (and $x439 $x441) true)))
 (let (($x418 (= $M.02_1 $p0_main01_1)))
 (let (($x1101 (or $x418 invalidFree_0)))
 (let (($x420 (= $p1_main01_1 $p0_main01_1)))
 (let (($x1102 (or $x420 invalidFree_0)))
 (let (($x425 (and (mallocable_top A_0 $p0_main01_1 1) (= A1_1 (malloc A_0 $p0_main01_1 1)))))
 (let (($x1103 (or $x425 invalidFree_0)))
 (let (($x427 (= $M.01_1 0)))
 (let (($x1104 (or $x427 invalidFree_0)))
 (let (($x1110 (and (and (and (and (and (and $x1104 $x1103) $x1102) $x1101) $x443) $x500) $x517)))
 (let (($x412 (= loc_0 1)))
 (let (($x1116 (and (and (= A_0 epsilon) (not invalidFree_0)) (=> $x412 (and (and $x1110 $x1112) $x524)))))
 (let (($x1212 (and (and $x1116 $x1140) (and $x1157 (=> $x761 (and (and (and $x1206 $x856) $x859) $x862))))))
 (let (($x1269 (and (and $x1212 (and (and $x1223 $x1244) (=> $x1000 (and $x1218 $x995)))) (and $x1260 $x1267))))
 (and $x1269 invalidFree_5))))))))))))))))))))))))))))))))))))))))))))))))))))))))))))))))))))))))))))))))))))))))))))))))))))))))))))))))))))))))))))))))))))))))))))))))))))))))))))))))))))))))))))))))))))))))))))))))))))))))))))))))))))))))))))))))))))))))))))))))))))))))))))))))))))))))))))
(check-sat)
